p cnf 40 134
-3 -1 0
-3 2 0
1 -2 3 0
-6 4 0
-6 5 0
-4 -5 6 0
4 6 -7 0
-4 -6 -7 0
4 -6 7 0
-4 6 7 0
-3 -7 -8 0
3 7 -8 0
-3 7 8 0
3 -7 8 0
-9 10 -11 0
9 -10 -11 0
-9 -10 11 0
9 10 11 0
12 -8 0
12 -11 0
8 11 -12 0
4 13 -14 0
-4 -13 -14 0
4 -13 14 0
-4 13 14 0
4 14 -15 0
-4 -14 -15 0
4 -14 15 0
-4 14 15 0
9 -15 -16 0
-9 15 -16 0
9 15 16 0
-9 -15 16 0
13 16 -17 0
-13 -16 -17 0
13 -16 17 0
-13 16 17 0
-19 17 0
-19 18 0
-17 -18 19 0
6 19 -20 0
-6 -19 -20 0
6 -19 20 0
-6 19 20 0
-21 -12 0
-21 -20 0
12 20 21 0
23 -7 0
23 -22 0
7 22 -23 0
25 24 0
25 5 0
-24 -5 -25 0
26 23 0
26 25 0
-23 -25 -26 0
-27 -10 0
-27 2 0
10 -2 27 0
-28 -27 0
-28 -7 0
27 7 28 0
-29 -28 0
-29 -9 0
28 9 29 0
30 -1 0
30 6 0
1 -6 -30 0
-31 4 0
-31 -30 0
-4 30 31 0
-32 4 0
-32 -31 0
-4 31 32 0
33 -9 0
33 4 0
9 -4 -33 0
31 33 -34 0
-31 -33 -34 0
31 -33 34 0
-31 33 34 0
-35 32 0
-35 34 0
-32 -34 35 0
-18 16 -36 0
18 -16 -36 0
-18 -16 36 0
18 16 36 0
37 35 0
37 -36 0
-35 36 -37 0
29 -37 -38 0
-29 37 -38 0
29 37 38 0
-29 -37 38 0
39 -26 0
39 38 0
26 -38 -39 0
-21 -39 -40 0
21 39 -40 0
-21 39 40 0
21 -39 40 0
14 -3 33 19 0
38 -34 16 0
-30 24 0
-18 2 -7 33 -32 0
-9 26 7 -11 5 0
-23 25 -4 0
7 -30 0
-5 7 0
-21 3 0
-37 34 -40 22 11 0
-21 -18 3 19 -5 -10 0
-34 -40 4 24 -22 0
-27 4 -25 6 -37 19 0
29 -2 -21 0
-23 36 -25 -11 40 0
-10 -14 -17 -30 -12 0
-8 21 0
4 24 0
5 -22 -35 -20 18 0
38 10 25 29 0
13 18 -10 3 -14 0
-24 12 -9 -13 22 0
12 -24 0
17 14 -22 -35 0
3 -36 38 0
31 -9 -26 0
-36 -14 15 0
5 -39 29 -35 0
-33 9 8 15 -35 -40 0
13 -3 -39 -23 0
6 -19 -27 37 -18 0
40 0
